p cnf 386 460
14 5 -15 21 22 0
14 5 -15 21 -22 0
14 5 -15 -21 23 0
14 5 -15 -21 -23 0
6 -16 -12 24 25 0
6 -16 -12 24 -25 0
6 -16 -12 -24 26 0
6 -16 -12 -24 -26 0
-7 -19 6 27 28 0
-7 -19 6 27 -28 0
-7 -19 6 -27 29 0
-7 -19 6 -27 -29 0
2 -19 15 30 31 0
2 -19 15 30 -31 0
2 -19 15 -30 32 0
2 -19 15 -30 -32 0
-1 -18 -10 33 34 0
-1 -18 -10 33 -34 0
-1 -18 -10 -33 35 0
-1 -18 -10 -33 -35 0
10 20 2 36 37 0
10 20 2 36 -37 0
10 20 2 -36 38 0
10 20 2 -36 -38 0
5 18 14 39 40 0
5 18 14 39 -40 0
5 18 14 -39 41 0
5 18 14 -39 -41 0
-3 -15 -17 42 43 0
-3 -15 -17 42 -43 0
-3 -15 -17 -42 44 0
-3 -15 -17 -42 -44 0
-11 -17 12 45 46 0
-11 -17 12 45 -46 0
-11 -17 12 -45 47 0
-11 -17 12 -45 -47 0
11 7 -5 48 49 0
11 7 -5 48 -49 0
11 7 -5 -48 50 0
11 7 -5 -48 -50 0
2 3 4 51 52 0
2 3 4 51 -52 0
2 3 4 -51 53 0
2 3 4 -51 -53 0
-6 4 -12 54 55 0
-6 4 -12 54 -55 0
-6 4 -12 -54 56 0
-6 4 -12 -54 -56 0
-9 19 -5 57 58 0
-9 19 -5 57 -58 0
-9 19 -5 -57 59 0
-9 19 -5 -57 -59 0
-6 -17 -11 60 61 0
-6 -17 -11 60 -61 0
-6 -17 -11 -60 62 0
-6 -17 -11 -60 -62 0
-9 1 -5 63 64 0
-9 1 -5 63 -64 0
-9 1 -5 -63 65 0
-9 1 -5 -63 -65 0
13 -5 -3 66 67 0
13 -5 -3 66 -67 0
13 -5 -3 -66 68 0
13 -5 -3 -66 -68 0
-6 18 -3 69 70 0
-6 18 -3 69 -70 0
-6 18 -3 -69 71 0
-6 18 -3 -69 -71 0
-9 -1 5 72 73 0
-9 -1 5 72 -73 0
-9 -1 5 -72 74 0
-9 -1 5 -72 -74 0
12 -1 -3 75 76 0
12 -1 -3 75 -76 0
12 -1 -3 -75 77 0
12 -1 -3 -75 -77 0
3 -8 -17 78 79 0
3 -8 -17 78 -79 0
3 -8 -17 -78 80 0
3 -8 -17 -78 -80 0
7 -12 -4 81 82 0
7 -12 -4 81 -82 0
7 -12 -4 -81 83 0
7 -12 -4 -81 -83 0
1 -19 -16 84 85 0
1 -19 -16 84 -85 0
1 -19 -16 -84 86 0
1 -19 -16 -84 -86 0
20 -6 -18 87 88 0
20 -6 -18 87 -88 0
20 -6 -18 -87 89 0
20 -6 -18 -87 -89 0
-11 -14 13 90 91 0
-11 -14 13 90 -91 0
-11 -14 13 -90 92 0
-11 -14 13 -90 -92 0
16 -20 6 93 94 0
16 -20 6 93 -94 0
16 -20 6 -93 95 0
16 -20 6 -93 -95 0
-9 11 8 96 97 0
-9 11 8 96 -97 0
-9 11 8 -96 98 0
-9 11 8 -96 -98 0
19 -2 -1 99 100 0
19 -2 -1 99 -100 0
19 -2 -1 -99 101 0
19 -2 -1 -99 -101 0
2 5 15 102 103 0
2 5 15 102 -103 0
2 5 15 -102 104 0
2 5 15 -102 -104 0
17 14 -1 105 106 0
17 14 -1 105 -106 0
17 14 -1 -105 107 0
17 14 -1 -105 -107 0
18 3 -13 108 109 0
18 3 -13 108 -109 0
18 3 -13 -108 110 0
18 3 -13 -108 -110 0
-9 -14 2 111 112 0
-9 -14 2 111 -112 0
-9 -14 2 -111 113 0
-9 -14 2 -111 -113 0
2 -10 7 114 115 0
2 -10 7 114 -115 0
2 -10 7 -114 116 0
2 -10 7 -114 -116 0
-20 -12 -11 117 118 0
-20 -12 -11 117 -118 0
-20 -12 -11 -117 119 0
-20 -12 -11 -117 -119 0
2 14 -8 120 121 0
2 14 -8 120 -121 0
2 14 -8 -120 122 0
2 14 -8 -120 -122 0
15 1 17 123 124 0
15 1 17 123 -124 0
15 1 17 -123 125 0
15 1 17 -123 -125 0
-18 13 15 126 127 0
-18 13 15 126 -127 0
-18 13 15 -126 128 0
-18 13 15 -126 -128 0
-5 -11 15 129 130 0
-5 -11 15 129 -130 0
-5 -11 15 -129 131 0
-5 -11 15 -129 -131 0
17 13 -16 132 133 0
17 13 -16 132 -133 0
17 13 -16 -132 134 0
17 13 -16 -132 -134 0
20 8 7 135 136 0
20 8 7 135 -136 0
20 8 7 -135 137 0
20 8 7 -135 -137 0
-2 -5 -10 138 139 0
-2 -5 -10 138 -139 0
-2 -5 -10 -138 140 0
-2 -5 -10 -138 -140 0
-18 9 -7 141 142 0
-18 9 -7 141 -142 0
-18 9 -7 -141 143 0
-18 9 -7 -141 -143 0
-17 14 -6 144 145 0
-17 14 -6 144 -145 0
-17 14 -6 -144 146 0
-17 14 -6 -144 -146 0
-16 1 -10 147 148 0
-16 1 -10 147 -148 0
-16 1 -10 -147 149 0
-16 1 -10 -147 -149 0
-4 -7 -11 150 151 0
-4 -7 -11 150 -151 0
-4 -7 -11 -150 152 0
-4 -7 -11 -150 -152 0
-15 18 9 153 154 0
-15 18 9 153 -154 0
-15 18 9 -153 155 0
-15 18 9 -153 -155 0
10 18 9 156 157 0
10 18 9 156 -157 0
10 18 9 -156 158 0
10 18 9 -156 -158 0
19 20 8 159 160 0
19 20 8 159 -160 0
19 20 8 -159 161 0
19 20 8 -159 -161 0
-5 -15 -16 162 163 0
-5 -15 -16 162 -163 0
-5 -15 -16 -162 164 0
-5 -15 -16 -162 -164 0
-19 15 10 165 166 0
-19 15 10 165 -166 0
-19 15 10 -165 167 0
-19 15 10 -165 -167 0
-6 -7 -17 168 169 0
-6 -7 -17 168 -169 0
-6 -7 -17 -168 170 0
-6 -7 -17 -168 -170 0
-8 -13 9 171 172 0
-8 -13 9 171 -172 0
-8 -13 9 -171 173 0
-8 -13 9 -171 -173 0
18 19 17 174 175 0
18 19 17 174 -175 0
18 19 17 -174 176 0
18 19 17 -174 -176 0
-6 19 -17 177 178 0
-6 19 -17 177 -178 0
-6 19 -17 -177 179 0
-6 19 -17 -177 -179 0
16 -5 -6 180 181 0
16 -5 -6 180 -181 0
16 -5 -6 -180 182 0
16 -5 -6 -180 -182 0
-13 -20 11 183 184 0
-13 -20 11 183 -184 0
-13 -20 11 -183 185 0
-13 -20 11 -183 -185 0
18 -7 5 186 187 0
18 -7 5 186 -187 0
18 -7 5 -186 188 0
18 -7 5 -186 -188 0
6 -10 3 189 190 0
6 -10 3 189 -190 0
6 -10 3 -189 191 0
6 -10 3 -189 -191 0
8 6 18 192 193 0
8 6 18 192 -193 0
8 6 18 -192 194 0
8 6 18 -192 -194 0
9 8 -15 195 196 0
9 8 -15 195 -196 0
9 8 -15 -195 197 0
9 8 -15 -195 -197 0
13 11 -9 198 199 0
13 11 -9 198 -199 0
13 11 -9 -198 200 0
13 11 -9 -198 -200 0
20 15 -19 201 202 0
20 15 -19 201 -202 0
20 15 -19 -201 203 0
20 15 -19 -201 -203 0
12 18 -2 204 205 0
12 18 -2 204 -205 0
12 18 -2 -204 206 0
12 18 -2 -204 -206 0
9 -15 -16 207 208 0
9 -15 -16 207 -208 0
9 -15 -16 -207 209 0
9 -15 -16 -207 -209 0
8 6 4 210 211 0
8 6 4 210 -211 0
8 6 4 -210 212 0
8 6 4 -210 -212 0
16 1 15 213 214 0
16 1 15 213 -214 0
16 1 15 -213 215 0
16 1 15 -213 -215 0
-19 2 18 216 217 0
-19 2 18 216 -217 0
-19 2 18 -216 218 0
-19 2 18 -216 -218 0
-17 20 -3 219 220 0
-17 20 -3 219 -220 0
-17 20 -3 -219 221 0
-17 20 -3 -219 -221 0
9 -10 5 222 223 0
9 -10 5 222 -223 0
9 -10 5 -222 224 0
9 -10 5 -222 -224 0
20 3 -9 225 226 0
20 3 -9 225 -226 0
20 3 -9 -225 227 0
20 3 -9 -225 -227 0
8 1 -16 228 229 0
8 1 -16 228 -229 0
8 1 -16 -228 230 0
8 1 -16 -228 -230 0
6 -3 20 231 232 0
6 -3 20 231 -232 0
6 -3 20 -231 233 0
6 -3 20 -231 -233 0
-9 -17 8 234 235 0
-9 -17 8 234 -235 0
-9 -17 8 -234 236 0
-9 -17 8 -234 -236 0
2 4 -18 237 238 0
2 4 -18 237 -238 0
2 4 -18 -237 239 0
2 4 -18 -237 -239 0
-9 -7 -15 240 241 0
-9 -7 -15 240 -241 0
-9 -7 -15 -240 242 0
-9 -7 -15 -240 -242 0
14 19 20 243 244 0
14 19 20 243 -244 0
14 19 20 -243 245 0
14 19 20 -243 -245 0
8 6 7 246 247 0
8 6 7 246 -247 0
8 6 7 -246 248 0
8 6 7 -246 -248 0
15 18 -3 249 250 0
15 18 -3 249 -250 0
15 18 -3 -249 251 0
15 18 -3 -249 -251 0
11 -10 1 252 253 0
11 -10 1 252 -253 0
11 -10 1 -252 254 0
11 -10 1 -252 -254 0
-1 5 15 255 256 0
-1 5 15 255 -256 0
-1 5 15 -255 257 0
-1 5 15 -255 -257 0
15 3 -14 258 259 0
15 3 -14 258 -259 0
15 3 -14 -258 260 0
15 3 -14 -258 -260 0
-11 -10 -4 261 262 0
-11 -10 -4 261 -262 0
-11 -10 -4 -261 263 0
-11 -10 -4 -261 -263 0
13 16 15 264 265 0
13 16 15 264 -265 0
13 16 15 -264 266 0
13 16 15 -264 -266 0
14 -11 -13 267 268 0
14 -11 -13 267 -268 0
14 -11 -13 -267 269 0
14 -11 -13 -267 -269 0
-15 -12 9 270 271 0
-15 -12 9 270 -271 0
-15 -12 9 -270 272 0
-15 -12 9 -270 -272 0
-11 20 -18 273 274 0
-11 20 -18 273 -274 0
-11 20 -18 -273 275 0
-11 20 -18 -273 -275 0
6 12 19 276 277 0
6 12 19 276 -277 0
6 12 19 -276 278 0
6 12 19 -276 -278 0
16 5 -2 279 280 0
16 5 -2 279 -280 0
16 5 -2 -279 281 0
16 5 -2 -279 -281 0
15 -3 -2 282 283 0
15 -3 -2 282 -283 0
15 -3 -2 -282 284 0
15 -3 -2 -282 -284 0
1 7 11 285 286 0
1 7 11 285 -286 0
1 7 11 -285 287 0
1 7 11 -285 -287 0
-13 14 7 288 289 0
-13 14 7 288 -289 0
-13 14 7 -288 290 0
-13 14 7 -288 -290 0
5 -14 20 291 292 0
5 -14 20 291 -292 0
5 -14 20 -291 293 0
5 -14 20 -291 -293 0
294 295 297 301 309 0
294 295 297 301 -309 0
294 295 297 -301 310 0
294 295 297 -301 -310 0
294 295 -297 302 311 0
294 295 -297 302 -311 0
294 295 -297 -302 312 0
294 295 -297 -302 -312 0
294 -295 298 303 313 0
294 -295 298 303 -313 0
294 -295 298 -303 314 0
294 -295 298 -303 -314 0
294 -295 -298 304 315 0
294 -295 -298 304 -315 0
294 -295 -298 -304 316 0
294 -295 -298 -304 -316 0
-294 296 299 305 317 0
-294 296 299 305 -317 0
-294 296 299 -305 318 0
-294 296 299 -305 -318 0
-294 296 -299 306 319 0
-294 296 -299 306 -319 0
-294 296 -299 -306 320 0
-294 296 -299 -306 -320 0
-294 -296 300 307 321 0
-294 -296 300 307 -321 0
-294 -296 300 -307 322 0
-294 -296 300 -307 -322 0
-294 -296 -300 308 323 0
-294 -296 -300 308 -323 0
-294 -296 -300 -308 324 0
-294 -296 -300 -308 -324 0
325 326 328 332 340 0
325 326 328 332 -340 0
325 326 328 -332 341 0
325 326 328 -332 -341 0
325 326 -328 333 342 0
325 326 -328 333 -342 0
325 326 -328 -333 343 0
325 326 -328 -333 -343 0
325 -326 329 334 344 0
325 -326 329 334 -344 0
325 -326 329 -334 345 0
325 -326 329 -334 -345 0
325 -326 -329 335 346 0
325 -326 -329 335 -346 0
325 -326 -329 -335 347 0
325 -326 -329 -335 -347 0
-325 327 330 336 348 0
-325 327 330 336 -348 0
-325 327 330 -336 349 0
-325 327 330 -336 -349 0
-325 327 -330 337 350 0
-325 327 -330 337 -350 0
-325 327 -330 -337 351 0
-325 327 -330 -337 -351 0
-325 -327 331 338 352 0
-325 -327 331 338 -352 0
-325 -327 331 -338 353 0
-325 -327 331 -338 -353 0
-325 -327 -331 339 354 0
-325 -327 -331 339 -354 0
-325 -327 -331 -339 355 0
-325 -327 -331 -339 -355 0
356 357 359 363 371 0
356 357 359 363 -371 0
356 357 359 -363 372 0
356 357 359 -363 -372 0
356 357 -359 364 373 0
356 357 -359 364 -373 0
356 357 -359 -364 374 0
356 357 -359 -364 -374 0
356 -357 360 365 375 0
356 -357 360 365 -375 0
356 -357 360 -365 376 0
356 -357 360 -365 -376 0
356 -357 -360 366 377 0
356 -357 -360 366 -377 0
356 -357 -360 -366 378 0
356 -357 -360 -366 -378 0
-356 358 361 367 379 0
-356 358 361 367 -379 0
-356 358 361 -367 380 0
-356 358 361 -367 -380 0
-356 358 -361 368 381 0
-356 358 -361 368 -381 0
-356 358 -361 -368 382 0
-356 358 -361 -368 -382 0
-356 -358 362 369 383 0
-356 -358 362 369 -383 0
-356 -358 362 -369 384 0
-356 -358 362 -369 -384 0
-356 -358 -362 370 385 0
-356 -358 -362 370 -385 0
-356 -358 -362 -370 386 0
-356 -358 -362 -370 -386 0

